Name:		mgval_0.50_4A
Optimal value:	350
#Vehicles:	3
Capacity:	225
Depot Node:	1
#Nodes:		41
#Edges:		26
#Arcs:		69
#Required N:	31
#Required E:	13
#Required A:	34

ReN.	DEMAND	S. COST
N2	4	4
N3	16	16
N4	5	5
N5	8	8
N7	1	1
N9	3	3
N11	6	6
N12	13	13
N13	8	8
N14	19	19
N15	7	7
N16	21	21
N17	2	2
N19	5	5
N20	14	14
N23	18	18
N24	12	12
N25	4	4
N26	13	13
N27	29	29
N28	7	7
N29	17	17
N30	19	19
N31	13	13
N32	13	13
N35	12	12
N36	3	3
N37	10	10
N39	12	12
N40	4	4
N41	5	5

ReE.	FROM N.	TO N.	T. COST	DEMAND	S. COST
E14	21	22	4	9	9
E15	34	38	7	12	12
E16	2	8	10	20	20
E17	17	20	2	4	4
E18	21	27	1	3	3
E19	16	19	1	2	2
E20	17	18	4	7	7
E21	13	23	7	14	14
E22	5	6	6	13	13
E23	34	35	2	4	4
E24	1	7	5	15	15
E25	15	25	9	19	19
E26	8	9	2	3	3

EDGE	FROM N.	TO N.	T. COST
NrE1	23	24	3
NrE2	31	35	4
NrE3	2	3	1
NrE4	14	23	3
NrE5	35	36	8
NrE6	32	36	10
NrE7	23	29	5
NrE8	24	30	8
NrE9	4	5	1
NrE10	5	11	4
NrE11	1	2	1
NrE12	20	21	5
NrE13	27	32	3

ReA.	FROM N.	TO N.	T. COST	DEMAND	S. COST
A36	10	11	4	3	3
A37	39	36	3	5	5
A38	36	37	8	6	6
A39	22	28	5	12	12
A40	37	33	2	2	2
A41	18	22	6	14	14
A42	15	10	1	2	2
A43	11	12	5	4	4
A44	13	7	7	14	14
A45	26	19	8	5	5
A46	38	39	9	5	5
A47	40	36	4	4	4
A48	24	25	4	3	3
A49	35	39	10	7	7
A50	32	31	5	5	5
A51	30	29	3	6	6
A52	24	14	4	13	13
A53	33	27	5	9	9
A54	25	24	4	4	4
A55	31	32	5	4	4
A56	11	16	6	6	6
A57	16	15	3	3	3
A58	10	15	1	1	1
A59	20	19	3	4	4
A60	9	14	5	5	5
A61	14	9	5	5	5
A62	8	7	2	2	2
A63	26	25	6	5	5
A64	10	4	3	4	4
A65	33	37	2	2	2
A66	40	39	2	3	3
A67	25	31	7	5	5
A68	10	9	3	3	3
A69	36	39	3	4	4

ARC	FROM N.	TO N.	T. COST
NrA1	16	11	6
NrA2	13	14	8
NrA3	11	10	4
NrA4	11	17	2
NrA5	30	31	12
NrA6	28	27	7
NrA7	16	17	9
NrA8	31	25	7
NrA9	29	34	14
NrA10	39	38	9
NrA11	4	10	3
NrA12	40	41	4
NrA13	20	27	5
NrA14	25	26	6
NrA15	15	14	3
NrA16	15	16	3
NrA17	41	37	5
NrA18	3	4	7
NrA19	36	40	4
NrA20	17	11	2
NrA21	3	9	1
NrA22	14	15	3
NrA23	12	6	3
NrA24	27	20	5
NrA25	27	28	7
NrA26	9	10	3
NrA27	26	32	7
NrA28	19	26	8
NrA29	12	11	5
NrA30	37	36	8
NrA31	37	41	5
NrA32	14	13	8
NrA33	27	26	7
NrA34	7	8	2
NrA35	39	35	10
